hw4-Switching|BigM/hw4_4C.dat
set TASKS := 1 2 3 4 5 6 7 8;

set A :=
1 2
1 3
2 4
3 5
4 6
5 6
6 7
5 8;

param M := 100000;

param duration :=
1 4
2 3
3 2
4 5
5 3
6 4
7 2
8 3;

param alpha :=
1 1.0
2 0.8
3 1.2
4 1.5
5 1.0
6 0.7
7 1.3
8 0.9;




