hw4-Switching|BigM/hw4_4C.out
x [*] :=
1   0
2   9
3   4
4  12
5   6
6  17
7  21
8  23
;

Total_Completion_Time_weighted = 149.3

